NAME: tsp_5
COMMENT: Random TSP instance
TYPE: TSP
DIMENSION: 50
EDGE_WEIGHT_TYPE: EUC_2D
NODE_COORD_SECTION
1 554 318
2 809 290
3 714 524
4 296 362
5 393 20
6 765 519
7 997 340
8 192 667
9 141 670
10 453 466
11 509 984
12 489 437
13 142 803
14 977 906
15 155 88
16 660 437
17 676 297
18 622 329
19 856 57
20 208 436
21 12 788
22 124 183
23 612 540
24 583 464
25 677 928
26 173 921
27 130 400
28 283 487
29 704 843
30 378 964
31 738 676
32 519 978
33 723 554
34 130 634
35 742 416
36 375 859
37 565 310
38 446 80
39 256 776
40 485 67
41 903 867
42 632 283
43 404 88
44 594 240
45 676 283
46 450 506
47 395 889
48 494 469
49 536 482
50 811 325
